job_count = 18 ;
duration = [|19, 7, 17, 3|38, 7, 18, 7|38, 5, 9, 4|22, 17, 9, 8|19, 20, 18, 4|24, 14, 11, 4|16, 29, 14, 6|13, 29, 15, 7|17, 5, 7, 6|20, 4, 18, 5|6, 19, 14, 2|13, 6, 12, 6|15, 25, 3, 1|4, 10, 17, 2|34, 18, 5, 7|16, 8, 17, 1|38, 15, 13, 9|31, 13, 13, 7|] ;
machine_count = 4 ;
cost = [|12, 37, 34, 68|11, 24, 36, 73|13, 27, 42, 49|14, 31, 37, 45|14, 39, 53, 75|17, 25, 51, 71|12, 34, 41, 73|14, 36, 59, 71|14, 31, 38, 79|12, 36, 36, 58|11, 36, 59, 47|10, 37, 46, 52|12, 27, 37, 49|13, 31, 32, 48|19, 30, 37, 58|13, 31, 58, 79|18, 26, 43, 69|14, 22, 55, 58|] ;
deadline = [37, 37, 37, 37, 37, 37, 37, 37, 37, 37, 37, 37, 37, 37, 37, 37, 37, 37] ;
release = [0, 0, 0, 0, 0, 0, 0, 0, 0, 0, 0, 0, 0, 0, 0, 0, 0, 0] ;
resource = [|2, 2, 2, 2|7, 7, 7, 7|7, 7, 7, 7|4, 4, 4, 4|7, 7, 7, 7|2, 2, 2, 2|3, 3, 3, 3|7, 7, 7, 7|9, 9, 9, 9|6, 6, 6, 6|8, 8, 8, 8|1, 1, 1, 1|2, 2, 2, 2|2, 2, 2, 2|7, 7, 7, 7|6, 6, 6, 6|8, 8, 8, 8|4, 4, 4, 4|] ;
capacities = [10, 10, 10, 10] ;
